c instance by G2
c solution = 10011100101000100110011
c Known solution cost is 1145 
p cnf 23 30
w 88 18 20 11 52 94 11 52 97 41 20 48 82 75 94 54 65 86 8 47 15 67 0
10 12 22 0
23 16 -6 0
-22 12 -13 0
14 11 10 0
12 1 21 0
20 18 13 0
-20 14 -11 0
-3 -11 -1 0
-9 -15 -3 0
22 -20 -23 0
21 23 17 0
9 20 8 0
-19 -6 -21 0
-7 -9 -6 0
-10 3 -6 0
-14 -5 13 0
4 -18 -11 0
-4 5 2 0
-18 8 -3 0
15 -18 -11 0
-12 -11 17 0
-2 -9 21 0
7 -12 13 0
-22 12 -17 0
-1 -18 -17 0
-4 19 20 0
13 12 -7 0
14 -4 -16 0
-23 -18 6 0
-9 -8 -23 0
